c colouring generated by benchmark framework
p edge 300 21633
v 1 19
v 2 7
v 3 15
v 4 18
v 5 26
v 6 20
v 7 30
v 8 41
v 9 40
v 10 2
v 11 42
v 12 1
v 13 27
v 14 5
v 15 13
v 16 5
v 17 13
v 18 40
v 19 41
v 20 16
v 21 4
v 22 0
v 23 2
v 24 20
v 25 14
v 26 8
v 27 5
v 28 50
v 29 19
v 30 14
v 31 0
v 32 1
v 33 44
v 34 8
v 35 28
v 36 14
v 37 6
v 38 23
v 39 38
v 40 25
v 41 10
v 42 29
v 43 45
v 44 29
v 45 3
v 46 11
v 47 6
v 48 12
v 49 42
v 50 35
v 51 27
v 52 43
v 53 27
v 54 38
v 55 23
v 56 45
v 57 9
v 58 6
v 59 13
v 60 0
v 61 48
v 62 18
v 63 31
v 64 1
v 65 8
v 66 18
v 67 3
v 68 12
v 69 21
v 70 31
v 71 25
v 72 44
v 73 17
v 74 22
v 75 11
v 76 45
v 77 36
v 78 0
v 79 25
v 80 51
v 81 0
v 82 17
v 83 38
v 84 21
v 85 2
v 86 10
v 87 33
v 88 24
v 89 3
v 90 22
v 91 34
v 92 39
v 93 7
v 94 20
v 95 30
v 96 24
v 97 15
v 98 5
v 99 3
v 100 28
v 101 19
v 102 4
v 103 15
v 104 46
v 105 17
v 106 22
v 107 42
v 108 35
v 109 28
v 110 9
v 111 35
v 112 29
v 113 30
v 114 9
v 115 6
v 116 1
v 117 42
v 118 13
v 119 43
v 120 3
v 121 37
v 122 37
v 123 33
v 124 41
v 125 17
v 126 8
v 127 50
v 128 10
v 129 25
v 130 14
v 131 31
v 132 46
v 133 18
v 134 12
v 135 18
v 136 3
v 137 8
v 138 6
v 139 8
v 140 24
v 141 5
v 142 38
v 143 12
v 144 17
v 145 4
v 146 15
v 147 31
v 148 16
v 149 16
v 150 24
v 151 2
v 152 12
v 153 0
v 154 2
v 155 31
v 156 37
v 157 15
v 158 10
v 159 12
v 160 20
v 161 35
v 162 39
v 163 2
v 164 39
v 165 8
v 166 31
v 167 26
v 168 9
v 169 44
v 170 44
v 171 20
v 172 19
v 173 24
v 174 29
v 175 30
v 176 9
v 177 16
v 178 26
v 179 50
v 180 28
v 181 2
v 182 16
v 183 51
v 184 0
v 185 34
v 186 27
v 187 32
v 188 10
v 189 13
v 190 11
v 191 25
v 192 26
v 193 20
v 194 19
v 195 7
v 196 1
v 197 0
v 198 43
v 199 17
v 200 34
v 201 31
v 202 14
v 203 7
v 204 23
v 205 16
v 206 28
v 207 22
v 208 47
v 209 39
v 210 5
v 211 36
v 212 32
v 213 41
v 214 27
v 215 36
v 216 37
v 217 18
v 218 6
v 219 46
v 220 34
v 221 21
v 222 34
v 223 7
v 224 27
v 225 21
v 226 35
v 227 11
v 228 21
v 229 37
v 230 25
v 231 17
v 232 11
v 233 12
v 234 40
v 235 40
v 236 32
v 237 7
v 238 12
v 239 21
v 240 16
v 241 3
v 242 11
v 243 23
v 244 6
v 245 28
v 246 48
v 247 26
v 248 7
v 249 1
v 250 50
v 251 35
v 252 17
v 253 10
v 254 22
v 255 3
v 256 1
v 257 9
v 258 4
v 259 23
v 260 34
v 261 19
v 262 1
v 263 33
v 264 15
v 265 16
v 266 3
v 267 14
v 268 15
v 269 12
v 270 48
v 271 1
v 272 5
v 273 5
v 274 25
v 275 13
v 276 29
v 277 49
v 278 22
v 279 32
v 280 32
v 281 33
v 282 28
v 283 26
v 284 9
v 285 37
v 286 3
v 287 18
v 288 19
v 289 21
v 290 49
v 291 47
v 292 4
v 293 39
v 294 4
v 295 32
v 296 45
v 297 38
v 298 19
v 299 17
v 300 33
